results_rootrelaxation/bin018_050_016.srr.sol
solution status: optimal solution found
objective value:                                    0
_var234_                            0.163658755399717 	(obj:0)
_var407_                            0.107659496521254 	(obj:0)
_var1978_                           0.139019307153412 	(obj:0)
_var2659_                           0.245717582318315 	(obj:0)
_var2749_                           0.467257272497761 	(obj:0)
_var2750_                           0.172796231940928 	(obj:0)
_var2753_                            0.04606699158056 	(obj:0)
_var2757_                            0.18914717687734 	(obj:0)
_var2762_                           0.150370785009359 	(obj:0)
_var2771_                           0.145489950500327 	(obj:0)
_var2775_                          0.0638162927355629 	(obj:0)
_var2776_                           0.210206120736532 	(obj:0)
_var2777_                            0.01243349600514 	(obj:0)
_var2778_                          0.0156097692907265 	(obj:0)
_var2779_                           0.277178382056825 	(obj:0)
_var2781_                          0.0434195727582921 	(obj:0)
_var2785_                           0.269937664053504 	(obj:0)
_var2788_                           0.268622969690639 	(obj:0)
_var2792_                           0.179508494283167 	(obj:0)
_var2794_                           0.368061302184102 	(obj:0)
_var2795_                          0.0290537005722125 	(obj:0)
_var2797_                           0.227953058032989 	(obj:0)
_var2799_                           0.198039081023308 	(obj:0)
_var2808_                           0.147876561155515 	(obj:0)
_var2810_                           0.133249764915232 	(obj:0)
_var2812_                          0.0446438310730166 	(obj:0)
_var2816_                          0.0618632808513983 	(obj:0)
_var2818_                           0.107119895500645 	(obj:0)
_var2822_                          0.0605856062390782 	(obj:0)
_var2824_                         0.00612040811853432 	(obj:0)
_var2836_                             0.2052107662769 	(obj:0)
_var2838_                           0.204875780551373 	(obj:0)
_var2839_                          0.0971970617382062 	(obj:0)
_var2840_                           0.197077390322347 	(obj:0)
_var2842_                            0.10573168868753 	(obj:0)
_var2844_                         0.00733167409957967 	(obj:0)
_var2850_                           0.185003202760427 	(obj:0)
_var2854_                            0.16176225673069 	(obj:0)
_var2857_                          0.0721403005542092 	(obj:0)
_var2858_                             0.1617040587064 	(obj:0)
_var2860_                           0.203210330607587 	(obj:0)
_var2865_                           0.312838669623267 	(obj:0)
_var2867_                            0.15541457119091 	(obj:0)
_var2868_                           0.106990700814864 	(obj:0)
_var2880_                           0.115585818468596 	(obj:0)
_var2884_                           0.100571674906535 	(obj:0)
_var2885_                           0.136877109889767 	(obj:0)
_var2888_                           0.332663223143457 	(obj:0)
_var2889_                          0.0331409059426152 	(obj:0)
_var2891_                           0.202112931540115 	(obj:0)
_var2892_                           0.135013345141436 	(obj:0)
_var2893_                           0.170936662799528 	(obj:0)
_var2894_                          0.0694961420606114 	(obj:0)
_var2899_                           0.265766995167746 	(obj:0)
_var2901_                          0.0339638131424116 	(obj:0)
_var2902_                          0.0151879748303007 	(obj:0)
_var2904_                           0.165436001091891 	(obj:0)
_var2905_                           0.100878531475884 	(obj:0)
_var2906_                           0.294024313088202 	(obj:0)
_var2907_                          0.0944906052966595 	(obj:0)
_var2908_                          0.0801235543156684 	(obj:0)
_var2909_                          0.0568551566964747 	(obj:0)
_var2910_                            0.25738264380192 	(obj:0)
_var2911_                          0.0970078525851023 	(obj:0)
_var2913_                           0.193869149756338 	(obj:0)
_var2915_                            0.35355400995926 	(obj:0)
_var2918_                          0.0456242009393294 	(obj:0)
_var2920_                           0.212961860597453 	(obj:0)
_var2923_                          0.0274690729882102 	(obj:0)
_var2925_                           0.101046106355642 	(obj:0)
_var2926_                          0.0461943440068436 	(obj:0)
_var2928_                          0.0843456161500477 	(obj:0)
_var2929_                          0.0629006192801556 	(obj:0)
_var2930_                          0.0854474086392787 	(obj:0)
_var2931_                           0.180967146083687 	(obj:0)
_var2936_                          0.0374904570872799 	(obj:0)
_var2937_                           0.088324841582466 	(obj:0)
_var2938_                           0.135738051166157 	(obj:0)
_var2941_                          0.0478949749275529 	(obj:0)
_var2943_                           0.141488338595629 	(obj:0)
_var2947_                          0.0309910496848672 	(obj:0)
_var2948_                          0.0517557359308244 	(obj:0)
_var2949_                           0.121558186530397 	(obj:0)
_var2951_                           0.303626111966992 	(obj:0)
_var2952_                          0.0872356881854617 	(obj:0)
_var2953_                          0.0662303084229327 	(obj:0)
_var2954_                          0.0963322433391216 	(obj:0)
_var2956_                           0.254814389328155 	(obj:0)
_var2959_                          0.0943294886884186 	(obj:0)
_var2960_                          0.0102355725308446 	(obj:0)
_var2962_                          0.0584000709299244 	(obj:0)
_var2963_                           0.124075240259749 	(obj:0)
_var2965_                           0.101448477593441 	(obj:0)
_var2968_                           0.128583213637706 	(obj:0)
_var2975_                           0.164431299999932 	(obj:0)
_var2976_                          0.0317581901892961 	(obj:0)
_var2977_                           0.039780748019404 	(obj:0)
_var2979_                          0.0450665779893111 	(obj:0)
_var2980_                            0.18282113766832 	(obj:0)
_var2982_                          0.0481089022529538 	(obj:0)
_var2985_                           0.103916476091327 	(obj:0)
_var2988_                          0.0723382852229773 	(obj:0)
_var2991_                           0.144136414588038 	(obj:0)
_var2992_                           0.121287531607605 	(obj:0)
_var2993_                          0.0568210351003066 	(obj:0)
_var2994_                           0.222970812072658 	(obj:0)
_var2995_                          0.0951748061302746 	(obj:0)
_var2996_                          0.0555412806063772 	(obj:0)
_var2998_                            0.07035306639731 	(obj:0)
_var3001_                          0.0731350108978309 	(obj:0)
_var3002_                           0.257385151759492 	(obj:0)
_var3003_                          0.0624050148163302 	(obj:0)
_var3004_                          0.0298952780664735 	(obj:0)
_var3005_                          0.0358077067906767 	(obj:0)
_var3006_                          0.0946993079197018 	(obj:0)
_var3010_                          0.0857332364090494 	(obj:0)
_var3011_                           0.119846366558491 	(obj:0)
_var3013_                          0.0839494322589155 	(obj:0)
_var3014_                           0.222881495309189 	(obj:0)
_var3015_                          0.0761345205997817 	(obj:0)
_var3016_                           0.135214221772804 	(obj:0)
_var3017_                         0.00756825754178631 	(obj:0)
_var3018_                          0.0860630055868814 	(obj:0)
_var3019_                           0.130374698389021 	(obj:0)
_var3022_                         0.00394444910777459 	(obj:0)
_var3023_                          0.0190566348409905 	(obj:0)
_var3024_                           0.123060028080099 	(obj:0)
_var3025_                          0.0296153969253436 	(obj:0)
_var3027_                          0.0463247531329449 	(obj:0)
_var3029_                          0.0337504605478915 	(obj:0)
_var3030_                          0.0462653892066691 	(obj:0)
_var3031_                          0.0201771464497009 	(obj:0)
_var3033_                          0.0317104812029444 	(obj:0)
_var3034_                           0.089770378902372 	(obj:0)
_var3035_                          0.0102814128637326 	(obj:0)
_var3036_                           0.032694775397169 	(obj:0)
_var3038_                           0.140070898390621 	(obj:0)
_var3039_                            0.04671573051824 	(obj:0)
_var3040_                           0.109921574650856 	(obj:0)
_var3041_                          0.0177759643733902 	(obj:0)
_var3042_                          0.0924659334422437 	(obj:0)
_var3044_                          0.0325330133920025 	(obj:0)
_var3045_                          0.0597908495532888 	(obj:0)
_var3047_                           0.013392520586727 	(obj:0)
_var3048_                          0.0357654733827011 	(obj:0)
_var3049_                            0.02369069957977 	(obj:0)
_var3052_                          0.0239618478275524 	(obj:0)
_var3054_                          0.0698794721838888 	(obj:0)
_var3058_                         0.00904560686832434 	(obj:0)
_var3059_                          0.0205456943721608 	(obj:0)
_var3065_                         0.000591327898837613 	(obj:0)
_var3067_                         0.000184333440482755 	(obj:0)
