results_rootrelaxation/bin018_050_016.srr.log
SCIP version 8.0.3.5 [precision: 8 byte] [memory: block] [mode: optimized] [LP solver: Soplex 6.0.1.3] [GitHash: 438792519e]
Copyright (c) 2002-2023 Zuse Institute Berlin (ZIB)

External libraries: 
  Readline 8.1         GNU library for command line editing (gnu.org/s/readline)
  Soplex 6.0.1.3       Linear Programming Solver developed at Zuse Institute Berlin (soplex.zib.de) [GitHash: 713be0fe]
  CppAD 20180000.0     Algorithmic Differentiation of C++ algorithms developed by B. Bell (github.com/coin-or/CppAD)
  ZLIB 1.2.11          General purpose compression library by J. Gailly and M. Adler (zlib.net)
  bliss 0.77           Computing Graph Automorphism Groups by T. Junttila and P. Kaski (www.tcs.hut.fi/Software/bliss/)

user parameter file <scip.set> not found - using default parameters

srr/relaxation = TRUE

read problem <instances/bin018_050_016.srr>
============

Original problem: 
original problem has 0 variables (0 bin, 0 int, 0 impl, 0 cont) and 170 constraints

presolving:
presolving (1 rounds: 1 fast, 1 medium, 1 exhaustive):
 0 deleted vars, 0 deleted constraints, 0 added constraints, 0 tightened bounds, 0 added holes, 0 changed sides, 0 changed coefficients
 0 implications, 0 cliques
presolved problem has 0 variables (0 bin, 0 int, 0 impl, 0 cont) and 170 constraints
    170 constraints of type <linear>
Presolving Time: 0.00

 time | node  | left  |LP iter|LP it/n|mem/heur|mdpt |vars |cons |rows |cuts |sepa|confs|strbr|  dualbound   | primalbound  |  gap   | compl. 
  0.0s|     1 |     0 |     1 |     - |   922k |   0 |   1 | 170 | 170 |   0 |  0 |   0 |   0 |      --      |      --      |    Inf | unknown
  0.2s|     1 |     0 |  1173 |     - |  7241k |   0 |1617 | 170 | 170 |   0 |  0 |   0 |   0 |      --      |      --      |    Inf | unknown
r 0.9s|     1 |     0 |  7326 |     - |simplero|   0 |2739 | 170 | 170 |   0 |  0 |   0 |   0 |      --      | 3.292936e+01 |    Inf | unknown
r 0.9s|     1 |     0 |  7434 |     - |simplero|   0 |2756 | 170 | 170 |   0 |  0 |   0 |   0 |      --      | 3.027431e+01 |    Inf | unknown
r 0.9s|     1 |     0 |  7563 |     - |simplero|   0 |2773 | 170 | 170 |   0 |  0 |   0 |   0 |      --      | 2.800484e+01 |    Inf | unknown
r 1.0s|     1 |     0 |  7708 |     - |simplero|   0 |2790 | 170 | 170 |   0 |  0 |   0 |   0 |      --      | 2.480367e+01 |    Inf | unknown
r 1.0s|     1 |     0 |  7880 |     - |simplero|   0 |2807 | 170 | 170 |   0 |  0 |   0 |   0 |      --      | 2.302606e+01 |    Inf | unknown
r 1.0s|     1 |     0 |  8069 |     - |simplero|   0 |2824 | 170 | 170 |   0 |  0 |   0 |   0 |      --      | 2.029471e+01 |    Inf | unknown
r 1.0s|     1 |     0 |  8213 |     - |simplero|   0 |2841 | 170 | 170 |   0 |  0 |   0 |   0 |      --      | 1.775022e+01 |    Inf | unknown
r 1.0s|     1 |     0 |  8380 |     - |simplero|   0 |2858 | 170 | 170 |   0 |  0 |   0 |   0 |      --      | 1.615143e+01 |    Inf | unknown
r 1.1s|     1 |     0 |  8502 |     - |simplero|   0 |2875 | 170 | 170 |   0 |  0 |   0 |   0 |      --      | 1.428089e+01 |    Inf | unknown
r 1.1s|     1 |     0 |  8577 |     - |simplero|   0 |2875 | 170 | 170 |   0 |  0 |   0 |   0 |      --      | 1.380423e+01 |    Inf | unknown
r 1.1s|     1 |     0 |  8589 |     - |simplero|   0 |2875 | 170 | 170 |   0 |  0 |   0 |   0 |      --      | 1.379872e+01 |    Inf | unknown
r 1.1s|     1 |     0 |  8593 |     - |simplero|   0 |2875 | 170 | 170 |   0 |  0 |   0 |   0 |      --      | 1.379660e+01 |    Inf | unknown
r 1.1s|     1 |     0 |  8737 |     - |simplero|   0 |2892 | 170 | 170 |   0 |  0 |   0 |   0 |      --      | 1.229653e+01 |    Inf | unknown
 time | node  | left  |LP iter|LP it/n|mem/heur|mdpt |vars |cons |rows |cuts |sepa|confs|strbr|  dualbound   | primalbound  |  gap   | compl. 
r 1.1s|     1 |     0 |  8789 |     - |simplero|   0 |2892 | 170 | 170 |   0 |  0 |   0 |   0 |      --      | 1.202267e+01 |    Inf | unknown
r 1.1s|     1 |     0 |  8804 |     - |simplero|   0 |2892 | 170 | 170 |   0 |  0 |   0 |   0 |      --      | 1.201194e+01 |    Inf | unknown
r 1.1s|     1 |     0 |  8808 |     - |simplero|   0 |2892 | 170 | 170 |   0 |  0 |   0 |   0 |      --      | 1.201095e+01 |    Inf | unknown
r 1.1s|     1 |     0 |  8973 |     - |simplero|   0 |2909 | 170 | 170 |   0 |  0 |   0 |   0 |      --      | 1.030987e+01 |    Inf | unknown
r 1.1s|     1 |     0 |  9068 |     - |simplero|   0 |2909 | 170 | 170 |   0 |  0 |   0 |   0 |      --      | 9.800649e+00 |    Inf | unknown
r 1.1s|     1 |     0 |  9078 |     - |simplero|   0 |2909 | 170 | 170 |   0 |  0 |   0 |   0 |      --      | 9.797273e+00 |    Inf | unknown
r 1.2s|     1 |     0 |  9216 |     - |simplero|   0 |2926 | 170 | 170 |   0 |  0 |   0 |   0 |      --      | 7.746057e+00 |    Inf | unknown
r 1.2s|     1 |     0 |  9265 |     - |simplero|   0 |2926 | 170 | 170 |   0 |  0 |   0 |   0 |      --      | 7.508337e+00 |    Inf | unknown
r 1.2s|     1 |     0 |  9308 |     - |simplero|   0 |2926 | 170 | 170 |   0 |  0 |   0 |   0 |      --      | 7.421575e+00 |    Inf | unknown
r 1.2s|     1 |     0 |  9311 |     - |simplero|   0 |2926 | 170 | 170 |   0 |  0 |   0 |   0 |      --      | 7.421059e+00 |    Inf | unknown
r 1.2s|     1 |     0 |  9418 |     - |simplero|   0 |2943 | 170 | 170 |   0 |  0 |   0 |   0 |      --      | 5.962080e+00 |    Inf | unknown
r 1.2s|     1 |     0 |  9466 |     - |simplero|   0 |2943 | 170 | 170 |   0 |  0 |   0 |   0 |      --      | 5.682354e+00 |    Inf | unknown
r 1.2s|     1 |     0 |  9484 |     - |simplero|   0 |2943 | 170 | 170 |   0 |  0 |   0 |   0 |      --      | 5.653896e+00 |    Inf | unknown
r 1.2s|     1 |     0 |  9582 |     - |simplero|   0 |2960 | 170 | 170 |   0 |  0 |   0 |   0 |      --      | 4.812543e+00 |    Inf | unknown
r 1.2s|     1 |     0 |  9652 |     - |simplero|   0 |2960 | 170 | 170 |   0 |  0 |   0 |   0 |      --      | 4.363251e+00 |    Inf | unknown
 time | node  | left  |LP iter|LP it/n|mem/heur|mdpt |vars |cons |rows |cuts |sepa|confs|strbr|  dualbound   | primalbound  |  gap   | compl. 
r 1.2s|     1 |     0 |  9657 |     - |simplero|   0 |2960 | 170 | 170 |   0 |  0 |   0 |   0 |      --      | 4.359076e+00 |    Inf | unknown
r 1.2s|     1 |     0 |  9728 |     - |simplero|   0 |2977 | 170 | 170 |   0 |  0 |   0 |   0 |      --      | 3.823264e+00 |    Inf | unknown
r 1.2s|     1 |     0 |  9758 |     - |simplero|   0 |2977 | 170 | 170 |   0 |  0 |   0 |   0 |      --      | 3.775376e+00 |    Inf | unknown
r 1.3s|     1 |     0 |  9767 |     - |simplero|   0 |2977 | 170 | 170 |   0 |  0 |   0 |   0 |      --      | 3.773937e+00 |    Inf | unknown
r 1.3s|     1 |     0 |  9833 |     - |simplero|   0 |2994 | 170 | 170 |   0 |  0 |   0 |   0 |      --      | 3.169644e+00 |    Inf | unknown
  1.3s|     1 |     0 |  9892 |     - |    14M |   0 |2994 | 170 | 170 |   0 |  0 |   0 |   0 |      --      | 3.169644e+00 |    Inf | unknown
r 1.3s|     1 |     0 |  9892 |     - |simplero|   0 |2994 | 170 | 170 |   0 |  0 |   0 |   0 |      --      | 3.026110e+00 |    Inf | unknown
r 1.3s|     1 |     0 |  9912 |     - |simplero|   0 |2994 | 170 | 170 |   0 |  0 |   0 |   0 |      --      | 3.010919e+00 |    Inf | unknown
r 1.3s|     1 |     0 |  9928 |     - |simplero|   0 |2994 | 170 | 170 |   0 |  0 |   0 |   0 |      --      | 3.006754e+00 |    Inf | unknown
r 1.3s|     1 |     0 | 10017 |     - |simplero|   0 |3011 | 170 | 170 |   0 |  0 |   0 |   0 |      --      | 2.421684e+00 |    Inf | unknown
r 1.3s|     1 |     0 | 10062 |     - |simplero|   0 |3011 | 170 | 170 |   0 |  0 |   0 |   0 |      --      | 2.312313e+00 |    Inf | unknown
r 1.3s|     1 |     0 | 10158 |     - |simplero|   0 |3028 | 170 | 170 |   0 |  0 |   0 |   0 |      --      | 1.451413e+00 |    Inf | unknown
r 1.3s|     1 |     0 | 10247 |     - |simplero|   0 |3028 | 170 | 170 |   0 |  0 |   0 |   0 |      --      | 1.109850e+00 |    Inf | unknown
r 1.3s|     1 |     0 | 10269 |     - |simplero|   0 |3028 | 170 | 170 |   0 |  0 |   0 |   0 |      --      | 1.090731e+00 |    Inf | unknown
r 1.3s|     1 |     0 | 10387 |     - |simplero|   0 |3045 | 170 | 170 |   0 |  0 |   0 |   0 |      --      | 3.191496e-01 |    Inf | unknown
 time | node  | left  |LP iter|LP it/n|mem/heur|mdpt |vars |cons |rows |cuts |sepa|confs|strbr|  dualbound   | primalbound  |  gap   | compl. 
r 1.3s|     1 |     0 | 10419 |     - |simplero|   0 |3045 | 170 | 170 |   0 |  0 |   0 |   0 |      --      | 2.060172e-01 |    Inf | unknown
r 1.4s|     1 |     0 | 10476 |     - |simplero|   0 |3062 | 170 | 170 |   0 |  0 |   0 |   0 |      --      | 3.280778e-03 |    Inf | unknown
r 1.4s|     1 |     0 | 10484 |     - |simplero|   0 |3062 | 170 | 170 |   0 |  0 |   0 |   0 |      --      | 8.729968e-04 |    Inf | unknown
r 1.4s|     1 |     0 | 10485 |     - |simplero|   0 |3062 | 170 | 170 |   0 |  0 |   0 |   0 |      --      | 8.522441e-04 |    Inf | unknown
r 1.4s|     1 |     0 | 10487 |     - |simplero|   0 |3079 | 170 | 170 |   0 |  0 |   0 |   0 |      --      | 0.000000e+00 |    Inf | unknown
  1.4s|     1 |     0 | 10487 |     - |    16M |   0 |3079 | 170 | 170 |   0 |  0 |   0 |   0 | 0.000000e+00 | 0.000000e+00 |   0.00%| unknown
  1.4s|     1 |     0 | 10487 |     - |    16M |   0 |3079 | 170 | 170 |   0 |  0 |   0 |   0 | 0.000000e+00 | 0.000000e+00 |   0.00%| unknown

SCIP Status        : problem is solved [optimal solution found]
Solving Time (sec) : 1.38
Solving Nodes      : 1
Primal Bound       : +0.00000000000000e+00 (47 solutions)
Dual Bound         : +0.00000000000000e+00
Gap                : 0.00 %

written transformed problem to file <results_rootrelaxation/bin018_050_016.srr.lp>
written transformed problem to file <results_rootrelaxation/bin018_050_016.srr.cip>

written solution information to file <results_rootrelaxation/bin018_050_016.srr.sol>



